p cnf 386 460
-16 -18 12 21 22 0
-16 -18 12 21 -22 0
-16 -18 12 -21 23 0
-16 -18 12 -21 -23 0
9 16 -15 24 25 0
9 16 -15 24 -25 0
9 16 -15 -24 26 0
9 16 -15 -24 -26 0
20 -10 17 27 28 0
20 -10 17 27 -28 0
20 -10 17 -27 29 0
20 -10 17 -27 -29 0
17 -15 -14 30 31 0
17 -15 -14 30 -31 0
17 -15 -14 -30 32 0
17 -15 -14 -30 -32 0
-4 -20 7 33 34 0
-4 -20 7 33 -34 0
-4 -20 7 -33 35 0
-4 -20 7 -33 -35 0
14 9 -10 36 37 0
14 9 -10 36 -37 0
14 9 -10 -36 38 0
14 9 -10 -36 -38 0
17 13 1 39 40 0
17 13 1 39 -40 0
17 13 1 -39 41 0
17 13 1 -39 -41 0
14 -3 7 42 43 0
14 -3 7 42 -43 0
14 -3 7 -42 44 0
14 -3 7 -42 -44 0
-2 -9 -12 45 46 0
-2 -9 -12 45 -46 0
-2 -9 -12 -45 47 0
-2 -9 -12 -45 -47 0
5 10 -3 48 49 0
5 10 -3 48 -49 0
5 10 -3 -48 50 0
5 10 -3 -48 -50 0
1 -14 13 51 52 0
1 -14 13 51 -52 0
1 -14 13 -51 53 0
1 -14 13 -51 -53 0
18 4 -10 54 55 0
18 4 -10 54 -55 0
18 4 -10 -54 56 0
18 4 -10 -54 -56 0
16 13 -14 57 58 0
16 13 -14 57 -58 0
16 13 -14 -57 59 0
16 13 -14 -57 -59 0
3 -1 14 60 61 0
3 -1 14 60 -61 0
3 -1 14 -60 62 0
3 -1 14 -60 -62 0
-5 2 -8 63 64 0
-5 2 -8 63 -64 0
-5 2 -8 -63 65 0
-5 2 -8 -63 -65 0
-13 19 12 66 67 0
-13 19 12 66 -67 0
-13 19 12 -66 68 0
-13 19 12 -66 -68 0
12 14 -3 69 70 0
12 14 -3 69 -70 0
12 14 -3 -69 71 0
12 14 -3 -69 -71 0
15 -11 -16 72 73 0
15 -11 -16 72 -73 0
15 -11 -16 -72 74 0
15 -11 -16 -72 -74 0
-8 -7 18 75 76 0
-8 -7 18 75 -76 0
-8 -7 18 -75 77 0
-8 -7 18 -75 -77 0
2 -20 14 78 79 0
2 -20 14 78 -79 0
2 -20 14 -78 80 0
2 -20 14 -78 -80 0
-6 -11 -20 81 82 0
-6 -11 -20 81 -82 0
-6 -11 -20 -81 83 0
-6 -11 -20 -81 -83 0
-9 4 -5 84 85 0
-9 4 -5 84 -85 0
-9 4 -5 -84 86 0
-9 4 -5 -84 -86 0
6 1 -4 87 88 0
6 1 -4 87 -88 0
6 1 -4 -87 89 0
6 1 -4 -87 -89 0
-20 -16 -4 90 91 0
-20 -16 -4 90 -91 0
-20 -16 -4 -90 92 0
-20 -16 -4 -90 -92 0
-20 17 -15 93 94 0
-20 17 -15 93 -94 0
-20 17 -15 -93 95 0
-20 17 -15 -93 -95 0
-19 10 -5 96 97 0
-19 10 -5 96 -97 0
-19 10 -5 -96 98 0
-19 10 -5 -96 -98 0
-10 13 1 99 100 0
-10 13 1 99 -100 0
-10 13 1 -99 101 0
-10 13 1 -99 -101 0
-7 -10 -8 102 103 0
-7 -10 -8 102 -103 0
-7 -10 -8 -102 104 0
-7 -10 -8 -102 -104 0
7 10 11 105 106 0
7 10 11 105 -106 0
7 10 11 -105 107 0
7 10 11 -105 -107 0
-6 4 -1 108 109 0
-6 4 -1 108 -109 0
-6 4 -1 -108 110 0
-6 4 -1 -108 -110 0
-18 16 -19 111 112 0
-18 16 -19 111 -112 0
-18 16 -19 -111 113 0
-18 16 -19 -111 -113 0
-6 -13 17 114 115 0
-6 -13 17 114 -115 0
-6 -13 17 -114 116 0
-6 -13 17 -114 -116 0
-6 11 16 117 118 0
-6 11 16 117 -118 0
-6 11 16 -117 119 0
-6 11 16 -117 -119 0
-6 17 -13 120 121 0
-6 17 -13 120 -121 0
-6 17 -13 -120 122 0
-6 17 -13 -120 -122 0
-19 -6 -18 123 124 0
-19 -6 -18 123 -124 0
-19 -6 -18 -123 125 0
-19 -6 -18 -123 -125 0
15 9 10 126 127 0
15 9 10 126 -127 0
15 9 10 -126 128 0
15 9 10 -126 -128 0
-15 2 -14 129 130 0
-15 2 -14 129 -130 0
-15 2 -14 -129 131 0
-15 2 -14 -129 -131 0
-3 -14 -15 132 133 0
-3 -14 -15 132 -133 0
-3 -14 -15 -132 134 0
-3 -14 -15 -132 -134 0
-5 -16 10 135 136 0
-5 -16 10 135 -136 0
-5 -16 10 -135 137 0
-5 -16 10 -135 -137 0
-16 -3 -5 138 139 0
-16 -3 -5 138 -139 0
-16 -3 -5 -138 140 0
-16 -3 -5 -138 -140 0
-7 -3 -6 141 142 0
-7 -3 -6 141 -142 0
-7 -3 -6 -141 143 0
-7 -3 -6 -141 -143 0
11 13 -12 144 145 0
11 13 -12 144 -145 0
11 13 -12 -144 146 0
11 13 -12 -144 -146 0
-4 -13 10 147 148 0
-4 -13 10 147 -148 0
-4 -13 10 -147 149 0
-4 -13 10 -147 -149 0
16 -5 13 150 151 0
16 -5 13 150 -151 0
16 -5 13 -150 152 0
16 -5 13 -150 -152 0
-5 -16 1 153 154 0
-5 -16 1 153 -154 0
-5 -16 1 -153 155 0
-5 -16 1 -153 -155 0
3 -17 14 156 157 0
3 -17 14 156 -157 0
3 -17 14 -156 158 0
3 -17 14 -156 -158 0
-20 18 16 159 160 0
-20 18 16 159 -160 0
-20 18 16 -159 161 0
-20 18 16 -159 -161 0
-5 -20 -14 162 163 0
-5 -20 -14 162 -163 0
-5 -20 -14 -162 164 0
-5 -20 -14 -162 -164 0
-1 -8 20 165 166 0
-1 -8 20 165 -166 0
-1 -8 20 -165 167 0
-1 -8 20 -165 -167 0
-8 17 4 168 169 0
-8 17 4 168 -169 0
-8 17 4 -168 170 0
-8 17 4 -168 -170 0
17 -5 1 171 172 0
17 -5 1 171 -172 0
17 -5 1 -171 173 0
17 -5 1 -171 -173 0
-3 -15 18 174 175 0
-3 -15 18 174 -175 0
-3 -15 18 -174 176 0
-3 -15 18 -174 -176 0
-16 11 -15 177 178 0
-16 11 -15 177 -178 0
-16 11 -15 -177 179 0
-16 11 -15 -177 -179 0
12 -13 -4 180 181 0
12 -13 -4 180 -181 0
12 -13 -4 -180 182 0
12 -13 -4 -180 -182 0
5 20 11 183 184 0
5 20 11 183 -184 0
5 20 11 -183 185 0
5 20 11 -183 -185 0
12 -6 -11 186 187 0
12 -6 -11 186 -187 0
12 -6 -11 -186 188 0
12 -6 -11 -186 -188 0
-4 16 -11 189 190 0
-4 16 -11 189 -190 0
-4 16 -11 -189 191 0
-4 16 -11 -189 -191 0
16 17 -7 192 193 0
16 17 -7 192 -193 0
16 17 -7 -192 194 0
16 17 -7 -192 -194 0
19 15 11 195 196 0
19 15 11 195 -196 0
19 15 11 -195 197 0
19 15 11 -195 -197 0
14 -8 -5 198 199 0
14 -8 -5 198 -199 0
14 -8 -5 -198 200 0
14 -8 -5 -198 -200 0
12 -7 17 201 202 0
12 -7 17 201 -202 0
12 -7 17 -201 203 0
12 -7 17 -201 -203 0
15 -19 -5 204 205 0
15 -19 -5 204 -205 0
15 -19 -5 -204 206 0
15 -19 -5 -204 -206 0
17 14 7 207 208 0
17 14 7 207 -208 0
17 14 7 -207 209 0
17 14 7 -207 -209 0
2 19 -12 210 211 0
2 19 -12 210 -211 0
2 19 -12 -210 212 0
2 19 -12 -210 -212 0
-14 13 -3 213 214 0
-14 13 -3 213 -214 0
-14 13 -3 -213 215 0
-14 13 -3 -213 -215 0
-10 15 -9 216 217 0
-10 15 -9 216 -217 0
-10 15 -9 -216 218 0
-10 15 -9 -216 -218 0
-6 9 -2 219 220 0
-6 9 -2 219 -220 0
-6 9 -2 -219 221 0
-6 9 -2 -219 -221 0
-8 1 19 222 223 0
-8 1 19 222 -223 0
-8 1 19 -222 224 0
-8 1 19 -222 -224 0
13 -20 -8 225 226 0
13 -20 -8 225 -226 0
13 -20 -8 -225 227 0
13 -20 -8 -225 -227 0
2 -14 -6 228 229 0
2 -14 -6 228 -229 0
2 -14 -6 -228 230 0
2 -14 -6 -228 -230 0
16 -2 -9 231 232 0
16 -2 -9 231 -232 0
16 -2 -9 -231 233 0
16 -2 -9 -231 -233 0
3 18 -7 234 235 0
3 18 -7 234 -235 0
3 18 -7 -234 236 0
3 18 -7 -234 -236 0
-16 17 -13 237 238 0
-16 17 -13 237 -238 0
-16 17 -13 -237 239 0
-16 17 -13 -237 -239 0
1 20 -13 240 241 0
1 20 -13 240 -241 0
1 20 -13 -240 242 0
1 20 -13 -240 -242 0
1 5 -6 243 244 0
1 5 -6 243 -244 0
1 5 -6 -243 245 0
1 5 -6 -243 -245 0
20 4 -19 246 247 0
20 4 -19 246 -247 0
20 4 -19 -246 248 0
20 4 -19 -246 -248 0
-6 -11 -9 249 250 0
-6 -11 -9 249 -250 0
-6 -11 -9 -249 251 0
-6 -11 -9 -249 -251 0
-5 11 14 252 253 0
-5 11 14 252 -253 0
-5 11 14 -252 254 0
-5 11 14 -252 -254 0
11 -5 20 255 256 0
11 -5 20 255 -256 0
11 -5 20 -255 257 0
11 -5 20 -255 -257 0
15 -13 -8 258 259 0
15 -13 -8 258 -259 0
15 -13 -8 -258 260 0
15 -13 -8 -258 -260 0
-18 19 20 261 262 0
-18 19 20 261 -262 0
-18 19 20 -261 263 0
-18 19 20 -261 -263 0
-8 12 -19 264 265 0
-8 12 -19 264 -265 0
-8 12 -19 -264 266 0
-8 12 -19 -264 -266 0
14 8 3 267 268 0
14 8 3 267 -268 0
14 8 3 -267 269 0
14 8 3 -267 -269 0
8 -15 12 270 271 0
8 -15 12 270 -271 0
8 -15 12 -270 272 0
8 -15 12 -270 -272 0
-11 -12 -16 273 274 0
-11 -12 -16 273 -274 0
-11 -12 -16 -273 275 0
-11 -12 -16 -273 -275 0
-14 10 -13 276 277 0
-14 10 -13 276 -277 0
-14 10 -13 -276 278 0
-14 10 -13 -276 -278 0
3 13 -11 279 280 0
3 13 -11 279 -280 0
3 13 -11 -279 281 0
3 13 -11 -279 -281 0
14 2 17 282 283 0
14 2 17 282 -283 0
14 2 17 -282 284 0
14 2 17 -282 -284 0
17 -1 -15 285 286 0
17 -1 -15 285 -286 0
17 -1 -15 -285 287 0
17 -1 -15 -285 -287 0
-14 8 12 288 289 0
-14 8 12 288 -289 0
-14 8 12 -288 290 0
-14 8 12 -288 -290 0
-9 20 14 291 292 0
-9 20 14 291 -292 0
-9 20 14 -291 293 0
-9 20 14 -291 -293 0
294 295 297 301 309 0
294 295 297 301 -309 0
294 295 297 -301 310 0
294 295 297 -301 -310 0
294 295 -297 302 311 0
294 295 -297 302 -311 0
294 295 -297 -302 312 0
294 295 -297 -302 -312 0
294 -295 298 303 313 0
294 -295 298 303 -313 0
294 -295 298 -303 314 0
294 -295 298 -303 -314 0
294 -295 -298 304 315 0
294 -295 -298 304 -315 0
294 -295 -298 -304 316 0
294 -295 -298 -304 -316 0
-294 296 299 305 317 0
-294 296 299 305 -317 0
-294 296 299 -305 318 0
-294 296 299 -305 -318 0
-294 296 -299 306 319 0
-294 296 -299 306 -319 0
-294 296 -299 -306 320 0
-294 296 -299 -306 -320 0
-294 -296 300 307 321 0
-294 -296 300 307 -321 0
-294 -296 300 -307 322 0
-294 -296 300 -307 -322 0
-294 -296 -300 308 323 0
-294 -296 -300 308 -323 0
-294 -296 -300 -308 324 0
-294 -296 -300 -308 -324 0
325 326 328 332 340 0
325 326 328 332 -340 0
325 326 328 -332 341 0
325 326 328 -332 -341 0
325 326 -328 333 342 0
325 326 -328 333 -342 0
325 326 -328 -333 343 0
325 326 -328 -333 -343 0
325 -326 329 334 344 0
325 -326 329 334 -344 0
325 -326 329 -334 345 0
325 -326 329 -334 -345 0
325 -326 -329 335 346 0
325 -326 -329 335 -346 0
325 -326 -329 -335 347 0
325 -326 -329 -335 -347 0
-325 327 330 336 348 0
-325 327 330 336 -348 0
-325 327 330 -336 349 0
-325 327 330 -336 -349 0
-325 327 -330 337 350 0
-325 327 -330 337 -350 0
-325 327 -330 -337 351 0
-325 327 -330 -337 -351 0
-325 -327 331 338 352 0
-325 -327 331 338 -352 0
-325 -327 331 -338 353 0
-325 -327 331 -338 -353 0
-325 -327 -331 339 354 0
-325 -327 -331 339 -354 0
-325 -327 -331 -339 355 0
-325 -327 -331 -339 -355 0
356 357 359 363 371 0
356 357 359 363 -371 0
356 357 359 -363 372 0
356 357 359 -363 -372 0
356 357 -359 364 373 0
356 357 -359 364 -373 0
356 357 -359 -364 374 0
356 357 -359 -364 -374 0
356 -357 360 365 375 0
356 -357 360 365 -375 0
356 -357 360 -365 376 0
356 -357 360 -365 -376 0
356 -357 -360 366 377 0
356 -357 -360 366 -377 0
356 -357 -360 -366 378 0
356 -357 -360 -366 -378 0
-356 358 361 367 379 0
-356 358 361 367 -379 0
-356 358 361 -367 380 0
-356 358 361 -367 -380 0
-356 358 -361 368 381 0
-356 358 -361 368 -381 0
-356 358 -361 -368 382 0
-356 358 -361 -368 -382 0
-356 -358 362 369 383 0
-356 -358 362 369 -383 0
-356 -358 362 -369 384 0
-356 -358 362 -369 -384 0
-356 -358 -362 370 385 0
-356 -358 -362 370 -385 0
-356 -358 -362 -370 386 0
-356 -358 -362 -370 -386 0

